\Problem name: Cutting Stock Problem

Minimize
OBJROW: 4 x_0 + 3 x_1 + 2 x_2 + 2 x_3 + x_5
Subject To
bar_0:  x_0 + 2 x_3 + x_5 + x_6 + 3 x_7 = 50
bar_1:  x_1 + 2 x_4 + x_5 = 60
bar_2:  x_2 + x_6 = 90
Bounds
Integers
x_0 x_1 x_2 x_3 x_4 x_5 x_6 x_7 
End
